
Starting CP-SAT solver v9.15.6755
Parameters: random_seed: 2026073302 max_time_in_seconds: 6939.999999429 log_search_progress: true cp_model_presolve: true linearization_level: 2 num_search_workers: 4 cp_model_probing_level: 2 symmetry_level: 2

Initial satisfaction model '': (model_fingerprint: 0x13555a73fd8bc09)
#Variables: 724 (608 primary variables)
  - 724 Booleans in [0,1]
#kBoolAnd: 110 (#enforced: 110) (#literals: 330)
#kBoolOr: 110 (#enforced: 110) (#literals: 220)
#kExactlyOne: 87 (#literals: 261)
#kLinear1: 32 (#enforced: 6)
#kLinear2: 336 (#enforced: 336) (#complex_domain: 110)
#kLinear3: 1'600 (#enforced: 6)
#kLinearN: 1'132 (#enforced: 243) (#terms: 9'111)

Starting presolve at 0.00s
  6.74e-04s  0.00e+00d  [DetectDominanceRelations] 
  8.80e-03s  0.00e+00d  [PresolveToFixPoint] #num_loops=3 #num_dual_strengthening=1 
  3.80e-05s  0.00e+00d  [ExtractEncodingFromLinear] #potential_supersets=82 
  2.98e-04s  0.00e+00d  [DetectDuplicateColumns] 
  1.05e-04s  0.00e+00d  [DetectDuplicateConstraints] #duplicates=5 
[Symmetry] Graph for symmetry has 4'869 nodes and 15'728 arcs.
[Symmetry] Symmetry computation done. time: 0.00122778 dtime: 0.00180772
[SAT presolve] num removable Booleans: 220 / 626
[SAT presolve] num trivial clauses: 0
[SAT presolve] [0s] clauses:2'734 literals:7'430 vars:506 one_side_vars:66 simple_definition:1 singleton_clauses:0
[SAT presolve] [0.000219103s] clauses:2'733 literals:7'423 vars:506 one_side_vars:66 simple_definition:1 singleton_clauses:0
[SAT presolve] [0.00059975s] clauses:2'412 literals:6'918 vars:389 one_side_vars:68 simple_definition:24 singleton_clauses:0
  1.41e-04s  0.00e+00d  [DetectDuplicateConstraintsWithDifferentEnforcements] #without_enforcements=1 
  5.70e-03s  2.70e-03d  [Probe] #probed=1'304 #fixed_bools=12 #equiv=9 #new_binary_clauses=982 
  5.38e-04s  3.81e-04d  [MaxClique] Merged 657 constraints with 1'428 literals into 587 constraints with 1'310 literals
  8.54e-04s  0.00e+00d  [DetectDominanceRelations] 
  3.19e-03s  0.00e+00d  [PresolveToFixPoint] #num_loops=1 #num_dual_strengthening=1 
  1.24e-03s  0.00e+00d  [ProcessAtMostOneAndLinear] 
  1.08e-04s  0.00e+00d  [DetectDuplicateConstraints] #duplicates=6 
  9.42e-05s  0.00e+00d  [DetectDuplicateConstraintsWithDifferentEnforcements] 
  2.30e-03s  8.74e-05d  [DetectDominatedLinearConstraints] #relevant_constraints=836 #num_inclusions=437 #num_redundant=7 
  1.28e-04s  0.00e+00d  [DetectDifferentVariables] 
  7.70e-04s  8.94e-05d  [ProcessSetPPC] #relevant_constraints=3'168 #num_inclusions=229 
  2.75e-04s  3.42e-05d  [TransformClausesToExactlyOne] #num_amos=585 #num_clauses=1'760 #num_checked=1'760 
  7.14e-05s  0.00e+00d  [DetectEncodedComplexDomains] 
  3.80e-05s  0.00e+00d  [FindAlmostIdenticalLinearConstraints] 
  9.29e-04s  1.43e-03d  [FindBigAtMostOneAndLinearOverlap] 
  1.47e-03s  1.21e-03d  [FindBigVerticalLinearOverlap] #blocks=4 #saved_nz=160 
  3.73e-04s  6.07e-04d  [FindBigHorizontalLinearOverlap] #linears=465 
  3.50e-04s  2.79e-05d  [MergeClauses] #num_collisions=8 #num_merges=8 #num_saved_literals=37 
  8.64e-04s  0.00e+00d  [DetectDominanceRelations] 
  3.22e-03s  0.00e+00d  [PresolveToFixPoint] #num_loops=2 #num_dual_strengthening=1 
  8.51e-04s  0.00e+00d  [DetectDominanceRelations] 
  3.02e-03s  0.00e+00d  [PresolveToFixPoint] #num_loops=1 #num_dual_strengthening=1 
  1.68e-04s  0.00e+00d  [DetectDuplicateColumns] 
  1.19e-04s  0.00e+00d  [DetectDuplicateConstraints] 
[Symmetry] Graph for symmetry has 4'523 nodes and 14'116 arcs.
[Symmetry] Symmetry computation done. time: 0.00100877 dtime: 0.00143624
[SAT presolve] num removable Booleans: 102 / 494
[SAT presolve] num trivial clauses: 0
[SAT presolve] [0s] clauses:2'329 literals:6'726 vars:466 one_side_vars:142 simple_definition:38 singleton_clauses:0
[SAT presolve] [0.000226066s] clauses:2'327 literals:6'558 vars:466 one_side_vars:155 simple_definition:84 singleton_clauses:0
[SAT presolve] [0.00036073s] clauses:2'194 literals:6'249 vars:461 one_side_vars:181 simple_definition:63 singleton_clauses:0
  1.51e-04s  0.00e+00d  [DetectDuplicateConstraintsWithDifferentEnforcements] 
  5.74e-03s  1.95e-03d  [Probe] #probed=1'304 #new_binary_clauses=607 
  4.32e-04s  3.09e-04d  [MaxClique] Merged 518 constraints with 1'115 literals into 509 constraints with 1'109 literals
  8.43e-04s  0.00e+00d  [DetectDominanceRelations] 
  3.12e-03s  0.00e+00d  [PresolveToFixPoint] #num_loops=1 #num_dual_strengthening=1 
  1.14e-03s  0.00e+00d  [ProcessAtMostOneAndLinear] 
  1.06e-04s  0.00e+00d  [DetectDuplicateConstraints] 
  1.02e-04s  0.00e+00d  [DetectDuplicateConstraintsWithDifferentEnforcements] 
  1.12e-03s  6.31e-05d  [DetectDominatedLinearConstraints] #relevant_constraints=827 #num_inclusions=332 
  1.31e-04s  0.00e+00d  [DetectDifferentVariables] 
  7.50e-04s  7.45e-05d  [ProcessSetPPC] #relevant_constraints=3'093 #num_inclusions=101 
  2.89e-04s  3.29e-05d  [TransformClausesToExactlyOne] #num_amos=509 #num_clauses=1'711 #num_checked=1'711 
  1.49e-04s  0.00e+00d  [DetectEncodedComplexDomains] 
  5.52e-05s  9.00e-08d  [FindAlmostIdenticalLinearConstraints] #num_tested_pairs=1 
  8.26e-04s  1.19e-03d  [FindBigAtMostOneAndLinearOverlap] 
  1.31e-03s  1.01e-03d  [FindBigVerticalLinearOverlap] #blocks=2 #saved_nz=68 
  3.52e-04s  5.46e-04d  [FindBigHorizontalLinearOverlap] #linears=461 
  3.27e-04s  2.64e-05d  [MergeClauses] #num_collisions=74 #num_merges=74 #num_saved_literals=189 
  8.79e-04s  0.00e+00d  [DetectDominanceRelations] 
  3.15e-03s  0.00e+00d  [PresolveToFixPoint] #num_loops=2 #num_dual_strengthening=1 
  8.56e-04s  0.00e+00d  [DetectDominanceRelations] 
  3.08e-03s  0.00e+00d  [PresolveToFixPoint] #num_loops=1 #num_dual_strengthening=1 
  1.68e-04s  0.00e+00d  [DetectDuplicateColumns] 
  1.01e-04s  0.00e+00d  [DetectDuplicateConstraints] 
[Symmetry] Graph for symmetry has 4'325 nodes and 13'315 arcs.
[Symmetry] Symmetry computation done. time: 0.00096609 dtime: 0.00136908
[SAT presolve] num removable Booleans: 97 / 489
[SAT presolve] num trivial clauses: 0
[SAT presolve] [0s] clauses:2'181 literals:6'214 vars:461 one_side_vars:183 simple_definition:63 singleton_clauses:0
[SAT presolve] [0.00020199s] clauses:2'181 literals:6'214 vars:461 one_side_vars:183 simple_definition:63 singleton_clauses:0
[SAT presolve] [0.000262925s] clauses:2'181 literals:6'214 vars:461 one_side_vars:183 simple_definition:63 singleton_clauses:0
  1.68e-04s  0.00e+00d  [DetectDuplicateConstraintsWithDifferentEnforcements] 
  5.80e-03s  1.91e-03d  [Probe] #probed=1'304 #new_binary_clauses=606 
  4.55e-04s  3.06e-04d  [MaxClique] Merged 507 constraints with 1'099 literals into 506 constraints with 1'098 literals
  8.84e-04s  0.00e+00d  [DetectDominanceRelations] 
  3.18e-03s  0.00e+00d  [PresolveToFixPoint] #num_loops=1 #num_dual_strengthening=1 
  1.13e-03s  0.00e+00d  [ProcessAtMostOneAndLinear] 
  1.26e-04s  0.00e+00d  [DetectDuplicateConstraints] 
  1.10e-04s  0.00e+00d  [DetectDuplicateConstraintsWithDifferentEnforcements] 
  7.07e-04s  5.58e-05d  [DetectDominatedLinearConstraints] #relevant_constraints=829 #num_inclusions=297 
  1.39e-04s  0.00e+00d  [DetectDifferentVariables] 
  7.48e-04s  7.29e-05d  [ProcessSetPPC] #relevant_constraints=3'088 #num_inclusions=92 
  2.91e-04s  3.29e-05d  [TransformClausesToExactlyOne] #num_amos=506 #num_clauses=1'713 #num_checked=1'713 
  1.64e-04s  0.00e+00d  [DetectEncodedComplexDomains] 
  7.81e-05s  1.00e-07d  [FindAlmostIdenticalLinearConstraints] #num_tested_pairs=1 
  8.02e-04s  1.12e-03d  [FindBigAtMostOneAndLinearOverlap] 
  1.31e-03s  9.67e-04d  [FindBigVerticalLinearOverlap] #blocks=3 #saved_nz=233 
  3.64e-04s  5.47e-04d  [FindBigHorizontalLinearOverlap] #linears=463 
  3.58e-04s  2.64e-05d  [MergeClauses] #num_collisions=75 #num_merges=75 #num_saved_literals=191 
  8.81e-04s  0.00e+00d  [DetectDominanceRelations] 
  3.20e-03s  0.00e+00d  [PresolveToFixPoint] #num_loops=2 #num_dual_strengthening=1 
  3.49e-05s  0.00e+00d  [MergeNoOverlap] 
  3.75e-05s  0.00e+00d  [MergeNoOverlap2D] 

Presolve summary:
  - 39 affine relations were detected.
  - rule 'TODO dual: only one blocking constraint?' was applied 840 times.
  - rule 'TODO linear inclusion: superset is equality' was applied 143 times.
  - rule 'affine: new relation' was applied 39 times.
  - rule 'at_most_one: removed literals' was applied 61 times.
  - rule 'at_most_one: size one' was applied 60 times.
  - rule 'at_most_one: transformed into max clique' was applied 3 times.
  - rule 'bool_or: implications' was applied 76 times.
  - rule 'bool_or: only one literal' was applied 12 times.
  - rule 'bool_or: removed enforcement literal' was applied 573 times.
  - rule 'deductions: 870 stored' was applied 1 time.
  - rule 'duplicate: merged rhs of linear constraint' was applied 10 times.
  - rule 'duplicate: removed constraint' was applied 11 times.
  - rule 'duplicate: removed enforced constraint' was applied 1 time.
  - rule 'enforcement: false literal' was applied 34 times.
  - rule 'enforcement: true literal' was applied 8 times.
  - rule 'exactly_one: removed literals' was applied 32 times.
  - rule 'exactly_one: satisfied' was applied 3 times.
  - rule 'exactly_one: singleton' was applied 2 times.
  - rule 'exactly_one: size two' was applied 30 times.
  - rule 'exactly_one: x and not(x)' was applied 6 times.
  - rule 'incompatible linear: add implication' was applied 126 times.
  - rule 'linear + amo: empty after processing' was applied 6 times.
  - rule 'linear + amo: extracted enforcement literal' was applied 52 times.
  - rule 'linear inclusion: redundant containing constraint' was applied 3 times.
  - rule 'linear inclusion: redundant included constraint' was applied 3 times.
  - rule 'linear inclusion: sparsify superset' was applied 1 time.
  - rule 'linear matrix: common vertical rectangle' was applied 9 times.
  - rule 'linear1: always true' was applied 1 time.
  - rule 'linear1: x in domain' was applied 26 times.
  - rule 'linear2: convert ax + by != cte to clauses' was applied 266 times.
  - rule 'linear2: convert implied ax + by == cte to clauses' was applied 118 times.
  - rule 'linear2: implied ax + by = cte has only one solution' was applied 9 times.
  - rule 'linear: always true' was applied 410 times.
  - rule 'linear: empty' was applied 1 time.
  - rule 'linear: extracted at most one (max)' was applied 1 time.
  - rule 'linear: fixed or dup variables' was applied 879 times.
  - rule 'linear: negative clause' was applied 1'295 times.
  - rule 'linear: negative reified and' was applied 78 times.
  - rule 'linear: never in domain' was applied 6 times.
  - rule 'linear: positive at most one' was applied 30 times.
  - rule 'linear: reduced variable domains' was applied 10 times.
  - rule 'linear: remapped using affine relations' was applied 22 times.
  - rule 'new_bool: integer encoding' was applied 6 times.
  - rule 'presolve: 78 unused variables removed.' was applied 1 time.
  - rule 'presolve: iteration' was applied 3 times.
  - rule 'probing: bool_or reduced to implication' was applied 29 times.
  - rule 'probing: simplified clauses' was applied 15 times.
  - rule 'setppc: bool_or in at_most_one' was applied 7 times.
  - rule 'setppc: removed dominated constraints' was applied 88 times.
  - rule 'variables: add encoding constraint' was applied 6 times.

Presolved satisfaction model '': (model_fingerprint: 0x84aadb7e5f617604)
#Variables: 498 (429 primary variables)
  - 489 Booleans in [0,1]
  - 8 in [0,2]
  - 1 in [0,9]
#kAtMostOne: 40 (#literals: 166)
#kBoolAnd: 270 (#enforced: 270) (#literals: 736)
#kBoolAndClauses: 75 (#enforced: 75 #multi: 75) (#literals: 341)
#kBoolOr: 1'563 (#literals: 4'746)
#kExactlyOne: 52 (#literals: 194)
#kLinear1: 12 (#enforced: 12)
#kLinear3: 12 (#enforced: 8)
#kLinearN: 819 (#enforced: 120) (#terms: 5'493)
[Symmetry] Graph for symmetry has 4'091 nodes and 13'080 arcs.
[Symmetry] Symmetry computation done. time: 0.000798374 dtime: 0.00131137

Preloading model.
#Model   0.10s var:498/498 constraints:2843/2843

Starting search at 0.10s with 4 workers.
3 full problem subsolvers: [default_lp, max_lp, no_lp]
1 first solution subsolver: [fj]
2 interleaved subsolvers: [feasibility_pump, rins/rens]
2 helper subsolvers: [neighborhood_helper, synchronization_agent]

#Model  37.87s var:497/498 constraints:2828/2843
#Model  51.39s var:496/498 constraints:2826/2843
#Model 984.02s var:495/498 constraints:2824/2843

Task timing                   n [     min,      max]      avg      dev     time         n [     min,      max]      avg      dev    dtime
        'default_lp':         1 [   1.93h,    1.93h]    1.93h   0.00ns    1.93h         2 [  2.00ms,    1.78h]   53.42m   53.42m    1.78h
  'feasibility_pump':     34365 [ 37.09us, 150.20ms]   1.81ms 902.44us    1.04m     34362 [287.03us, 126.81ms] 293.07us 682.50us   10.07s
                'fj':     24140 [108.21ms, 262.67ms] 142.36ms  10.84ms   57.28m     24140 [ 93.65ms, 100.13ms] 100.02ms  42.99us   40.24m
            'max_lp':         1 [   1.93h,    1.93h]    1.93h   0.00ns    1.93h         2 [ 76.52ms,    2.32h]    1.16h    1.16h    2.32h
             'no_lp':         1 [   1.93h,    1.93h]    1.93h   0.00ns    1.93h         2 [  1.77ms,    3.67h]    1.83h    1.83h    3.67h
         'rins/rens':     30524 [902.94us, 258.52ms] 112.58ms  44.06ms   57.28m     30521 [ 99.97us, 100.36ms]  66.60ms  38.48ms   33.88m

Search stats     Bools   Conflicts    Branches  Restarts  BacktrackToRoot   Backtrack     BoolPropag  IntegerPropag
  'default_lp':    489     598'115  13'428'220     3'611        2'015'152   3'054'575    138'274'312    166'206'314
      'max_lp':    489     323'205  17'410'052     1'812        2'672'251   3'573'443    178'152'943    218'998'080
       'no_lp':    489  44'295'854  57'937'405   145'902          925'931  44'933'591  3'654'840'814  1'002'704'915

SAT formula      Fixed  Equiv  Total  VarLeft  BinaryClauses  PermanentClauses  TemporaryClauses
  'default_lp':      3      3    489      483          2'542            74'165             7'842
      'max_lp':      3      3    489      483          2'542            74'275            10'507
       'no_lp':      3      3    489      483          2'542           207'084             7'234

SAT stats        ClassicMinim   LitRemoved  LitRemovedBinary     LitLearned  LitForgotten    Subsumed
  'default_lp':       527'924    7'409'859         3'094'702     22'895'182    16'897'007     187'757
      'max_lp':       280'168    4'035'307         1'734'666     10'154'979     7'351'818      81'257
       'no_lp':    40'149'456  805'472'205       250'221'379  1'148'721'828   932'277'161  11'548'779

Vivification       Clauses   Decisions  LitTrue  Subsumed  LitRemoved  DecisionReused  Conflicts
  'default_lp':  1'949'473  12'118'689        2    17'837     196'883         408'617      1'306
      'max_lp':  2'554'851  16'272'075        0    19'558     218'967         502'038      1'290
       'no_lp':    618'739   5'327'222        0    36'768     482'621         128'286      1'087

Clause deletion    at_true  l_and_not(l)  to_binary  sub_conflict  sub_extra  sub_decisions  sub_eager  sub_vivify  sub_probing  sub_inpro  blocked  eliminated   forgotten    promoted   conflicts
    'default_lp':       99             0          3       185'374      1'536          6'147      2'383      17'837          256      2'746        0           0     389'762   1'196'999     598'115
        'max_lp':      104             1          2        80'387        890          1'983        870      19'558          277      2'017        0           0     221'232     703'727     323'205
         'no_lp':      143             1          4    11'352'695     72'419        462'578    196'084      36'768          324     98'879        0           0  31'870'609  99'851'335  44'295'854

Lp stats         Component  Iterations  AddedCuts  OPTIMAL  DUAL_F.  DUAL_U.
  'default_lp':          1  78'773'511    253'262  922'179        1  520'480
      'max_lp':          1  39'548'038    247'405  127'111  306'855   96'260

Lp dimension        Final dimension of first component
  'default_lp':    281 rows, 350 columns, 2571 entries
      'max_lp':  1499 rows, 498 columns, 16522 entries

Lp debug         CutPropag  CutEqPropag   Adjust  Overflow        Bad  BadScaling
  'default_lp':          0          272  520'472         0  7'245'489           0
      'max_lp':          0          259   96'249         0  7'493'442           0

Lp pool          Constraints  Updates  Simplif  Merged  Shortened  Split  Strengthened        Cuts/Call
  'default_lp':       10'035   52'156        0       0        565      0             8  253'262/465'287
      'max_lp':       12'599   75'902        0       3         97      0         5'245  247'405/528'287

Lp Cut            default_lp   max_lp
          CG_FF:       4'781      200
           CG_K:       2'601       30
          CG_KL:       2'425       13
           CG_R:       5'183      124
          CG_RB:          68       26
         CG_RBP:          31        8
         Clique:           -      379
             IB:         405       25
       MIR_1_FF:       2'358    1'849
        MIR_1_K:         590       78
       MIR_1_KL:       1'732      118
        MIR_1_R:       2'241    1'174
       MIR_1_RB:          37        2
      MIR_1_RBP:           3        1
      MIR_1_RLT:           -   31'188
       MIR_2_FF:       2'426    2'933
        MIR_2_K:         588      605
       MIR_2_KL:       1'365      284
        MIR_2_R:       3'042    2'786
       MIR_2_RB:          68       17
      MIR_2_RBP:          20        9
       MIR_3_FF:       1'058      815
        MIR_3_K:         226      165
       MIR_3_KL:         396       46
        MIR_3_R:       1'477      961
       MIR_3_RB:          50       17
      MIR_3_RBP:          23       20
       MIR_4_FF:         410      271
        MIR_4_K:         105       48
       MIR_4_KL:         194       19
        MIR_4_R:       1'092      747
       MIR_4_RB:          29       17
      MIR_4_RBP:          25       23
       MIR_5_FF:         113      102
        MIR_5_K:          27       26
       MIR_5_KL:          27        3
        MIR_5_R:         681      713
       MIR_5_RB:          26       10
      MIR_5_RBP:          19       13
       MIR_6_FF:          50       42
        MIR_6_K:          16       16
       MIR_6_KL:           9        1
        MIR_6_R:         457      643
       MIR_6_RB:          17       17
      MIR_6_RBP:           9       27
   ZERO_HALF_FF:       1'403    1'493
    ZERO_HALF_K:         515       88
   ZERO_HALF_KL:         443       18
    ZERO_HALF_R:     213'967  198'873
   ZERO_HALF_RB:         112       19
  ZERO_HALF_RBP:         322      303

LNS stats       Improv/Calls  Closed  Difficulty  TimeLimit
  'rins/rens':   30522/30522     50%    7.93e-01       0.10

LS stats                                    Batches  Restarts/Perturbs    LinMoves    GenMoves  CompoundMoves   Bactracks  WeightUpdates  ScoreComputed
                             'fj_restart':    1'775                277  54'194'160           0              0           0     45'051'851    100'630'479
                    'fj_restart_compound':    1'254                276           0  14'479'926        694'776   6'892'018         36'092    233'751'216
                'fj_restart_compound_obj':    1'374                281           0  16'132'623        771'484   7'679'952         38'172    256'546'727
            'fj_restart_compound_perturb':    1'513                265           0  17'747'576        672'534   8'536'959         48'722    282'601'389
        'fj_restart_compound_perturb_obj':    1'341                257           0  15'659'375        700'233   7'479'067         39'176    250'745'949
                       'fj_restart_decay':    1'332                283  43'278'208           0              0           0      1'785'446     38'175'052
              'fj_restart_decay_compound':    1'198                279           0  15'129'778      2'449'223   6'339'515         15'473    226'847'226
          'fj_restart_decay_compound_obj':    1'663                269           0  21'600'275      3'462'767   9'068'120         21'122    315'676'852
      'fj_restart_decay_compound_perturb':    1'555                299           0  20'033'931      3'214'565   8'408'989         19'893    294'787'933
  'fj_restart_decay_compound_perturb_obj':    1'869                317           0  24'261'042      3'904'921  10'177'252         23'830    354'885'957
                   'fj_restart_decay_obj':    1'072                274  34'810'038           0              0           0      1'437'319     30'752'891
               'fj_restart_decay_perturb':    1'846                273  60'014'556           0              0           0      2'475'567     52'957'577
           'fj_restart_decay_perturb_obj':    1'690                313  54'894'789           0              0           0      2'267'739     48'473'172
                         'fj_restart_obj':    2'031                334  60'713'808           0              0           0     52'411'652    124'846'366
                     'fj_restart_perturb':    1'362                294  40'019'154           0              0           0     34'689'029     80'717'683
                 'fj_restart_perturb_obj':    1'265                305  36'485'060           0              0           0     32'205'326     72'945'139

Solution repositories    Added  Queried  Synchro
    'alternative_path':      0        0        0
      'best_solutions':      0        0        0
   'fj solution hints':  4'588        0    4'588
        'lp solutions':  4'144   30'524    4'143
                'pump':      0        0

Improving bounds shared    Num  Sym
            'default_lp':    2    0
                'max_lp':    1    0

Clauses shared    #Exported  #Imported  #BinaryRead  #BinaryTotal
   'default_lp':      3'296     88'271          309           309
       'max_lp':      4'365     87'129          309           309
        'no_lp':     86'311      8'309          309           309

LRAT_status: NA
CpSolverResponse summary:
status: UNKNOWN
objective: NA
best_bound: NA
integers: 362
booleans: 489
conflicts: 598115
branches: 13428220
propagations: 138274312
integer_propagations: 166206314
restarts: 3611
lp_iterations: 78773511
walltime: 6940.65
usertime: 6940.65
deterministic_time: 32412.2
gap_integral: 0

{
  "board_size": 22,
  "parity_proved": 0,
  "target": 34,
  "child_id": 1102,
  "child_count": 2640,
  "partition": "unknown_pair_x_diag_plus_twos_x_diag_minus_twos",
  "build_seconds": 0.08057832717895508,
  "workers": 4,
  "requested_seed": 2026073302,
  "effective_seed": 2026073302,
  "main_diagonal_pair": [
    2,
    18
  ],
  "pair_index": 55,
  "diag_plus_twos": 16,
  "diag_minus_twos": 16,
  "pair_excess": 0,
  "residual_certificate_slack": 112,
  "analytic_minimum_line_defect": 24,
  "analytic_defect_details": {
    "row_costs": {
      "12": 6,
      "13": 3,
      "14": 0,
      "15": 0,
      "16": 0,
      "17": 0
    },
    "column_costs": {
      "12": 6,
      "13": 3,
      "14": 0,
      "15": 0,
      "16": 0,
      "17": 0
    },
    "plus_cost": 24,
    "minus_cost": 0,
    "row_column_minimum": 0
  },
  "maximal_line_constraints": 2455,
  "analytic_infeasible": false,
  "allowed_points": 242,
  "status": "UNKNOWN",
  "proof_method": "cp_sat_all_lines_with_certificate_profile_cuts",
  "elapsed_seconds": 6940.651767492294,
  "branches": 13428220,
  "conflicts": 598115
}
